num_offers = 34;
start = [63, 63, 63, 63, 63, 63, 71, 71, 71, 71, 71, 80, 80, 80, 67, 67, 67, 67, 67, 67, 67, 16, 16, 16, 3, 3, 3, 3, 3, 74, 13, 13, 13, 13];
end = [95, 95, 95, 95, 95, 95, 85, 85, 85, 85, 85, 88, 88, 88, 94, 94, 94, 94, 94, 94, 94, 36, 36, 36, 37, 37, 37, 37, 37, 89, 79, 79, 79, 79];
price = [2871, 2871, 2871, 2871, 2871, 2871, 510, 510, 510, 510, 510, 711, 711, 711, 2212, 2212, 2212, 2212, 2212, 2212, 2212, 1512, 1512, 1512, 1610, 1610, 1610, 1610, 1610, 528, 4355, 4355, 4355, 4355];
num_halls = 10;
capacity = [968,968,494,494,494,494,820,820,378,378];
requirement = [575,575,575,575,575,901,901,901,427,753,753,753,753,753,753,753,278,278,278,278,604,604,930,930,930,930,930,930,930,930,456,456,456,456];
